
Gurobi 13.0.1 (linux64) logging started Thu Mar 26 15:18:39 2026

Set parameter LogFile to value "logs_sparse/75B_6F_robust_gamma_0d1_theta_0d05199999999999999_2026-03-26_15h18m08s.log"
Set parameter MIPGap to value 0.005
Set parameter OptimalityTol to value 0.005
Gurobi Optimizer version 13.0.1 build v13.0.1rc0 (linux64 - "Linux Mint 22")

CPU model: 12th Gen Intel(R) Core(TM) i7-12700, instruction set [SSE2|AVX|AVX2]
Thread count: 20 physical cores, 20 logical processors, using up to 20 threads

Non-default parameters:
TimeLimit  3600
SoftMemLimit  12
MIPGap  0.005
OptimalityTol  0.005

Optimize a model with 90326 rows, 1733346 columns and 5286408 nonzeros (Max)
Model fingerprint: 0xf1fbfbba
Model has 1665086 linear objective coefficients
Variable types: 23346 continuous, 1710000 integer (1710000 binary)
Coefficient statistics:
  Matrix range     [3e-05, 1e+05]
  Objective range  [1e+00, 3e+03]
  Bounds range     [1e+00, 1e+05]
  RHS range        [1e-02, 1e+05]

Presolve removed 46314 rows and 1252620 columns
Presolve time: 3.29s
Presolved: 44012 rows, 480726 columns, 1506877 nonzeros
Variable types: 11328 continuous, 469398 integer (469398 binary)
Found heuristic solution: objective -3.83726e+08
Deterministic concurrent LP optimizer: primal simplex, dual simplex, and barrier
Showing barrier log only...

Root barrier log...

Ordering time: 0.96s

Barrier statistics:
 AA' NZ     : 7.621e+05
 Factor NZ  : 6.411e+06 (roughly 260 MB of memory)
 Factor Ops : 1.809e+09 (less than 1 second per iteration)
 Threads    : 18

                  Objective                Residual
Iter       Primal          Dual         Primal    Dual     Compl     Time
   0  -1.35476777e+13  1.91371673e+09  1.97e+08 1.02e+03  8.23e+07     6s
   1  -2.22043465e+12  5.45205411e+09  3.22e+07 1.87e+02  1.39e+07     6s
   2  -4.80777523e+09  4.09449439e+09  7.58e+04 7.91e-11  3.65e+04     6s
   3  -4.98247388e+08  1.98309238e+09  8.10e+03 5.91e-11  5.20e+03     6s
   4   1.55506893e+08  1.34440307e+09  1.73e+03 6.00e-11  1.70e+03     6s
   5   2.40384227e+08  7.49708862e+08  8.66e+02 4.68e-11  7.22e+02     6s
   6   2.62934286e+08  5.35140801e+08  6.30e+02 5.48e-11  4.15e+02     7s
   7   2.74504417e+08  4.88878227e+08  5.07e+02 5.84e-11  3.28e+02     7s
   8   2.89961070e+08  3.93396618e+08  3.41e+02 4.18e-11  1.77e+02     7s
   9   3.08477673e+08  3.54512737e+08  1.37e+02 4.68e-11  7.49e+01     7s
  10   3.14949748e+08  3.41915626e+08  6.46e+01 5.23e-11  4.04e+01     7s
  11   3.18369583e+08  3.26544223e+08  2.59e+01 1.19e-10  1.31e+01     7s
  12   3.20040729e+08  3.25686995e+08  7.20e+00 1.34e-10  7.00e+00     7s
  13   3.20650180e+08  3.22913355e+08  7.01e-01 8.36e-11  2.37e+00     7s
  14   3.20739517e+08  3.22281968e+08  2.88e-01 8.07e-11  1.59e+00     7s
  15   3.20820899e+08  3.21845722e+08  5.54e-02 9.27e-11  1.04e+00     7s
  16   3.20878746e+08  3.21351768e+08  2.37e-02 9.32e-11  4.81e-01     8s
  17   3.20935605e+08  3.21136925e+08  8.91e-03 1.24e-10  2.05e-01     8s
  18   3.20969915e+08  3.21062679e+08  3.30e-03 9.44e-11  9.43e-02     8s
  19   3.20986652e+08  3.21037402e+08  8.83e-04 1.18e-10  5.16e-02     8s
  20   3.20989180e+08  3.21017847e+08  5.81e-04 1.03e-10  2.91e-02     8s
  21   3.20990195e+08  3.21013418e+08  4.65e-04 1.11e-10  2.36e-02     8s
  22   3.20992170e+08  3.21008573e+08  2.71e-04 1.25e-10  1.67e-02     8s
  23   3.20993092e+08  3.21004061e+08  1.62e-04 1.07e-10  1.12e-02     8s
  24   3.20993666e+08  3.21001184e+08  1.09e-04 8.05e-11  7.64e-03     8s
  25   3.20994047e+08  3.20999279e+08  7.57e-05 9.57e-11  5.32e-03     9s
  26   3.20994257e+08  3.20998360e+08  5.96e-05 1.00e-10  4.17e-03     9s
  27   3.20994555e+08  3.20997156e+08  3.45e-05 9.96e-11  2.64e-03     9s
  28   3.20994676e+08  3.20996658e+08  2.49e-05 1.10e-10  2.01e-03     9s
  29   3.20994753e+08  3.20996370e+08  1.87e-05 1.20e-10  1.64e-03     9s
  30   3.20994840e+08  3.20995754e+08  1.21e-05 1.04e-10  9.29e-04     9s
  31   3.20994953e+08  3.20995547e+08  4.95e-06 1.08e-10  6.05e-04     9s
  32   3.20994995e+08  3.20995238e+08  1.89e-06 9.57e-11  2.47e-04    10s
  33   3.20995012e+08  3.20995117e+08  8.89e-07 1.02e-10  1.07e-04    10s
  34   3.20995019e+08  3.20995066e+08  5.36e-07 8.94e-11  4.78e-05    10s
  35   3.20995026e+08  3.20995046e+08  2.41e-07 8.37e-11  2.02e-05    10s
  36   3.20995029e+08  3.20995037e+08  1.23e-07 9.66e-11  8.10e-06    10s
  37   3.20995031e+08  3.20995034e+08  2.94e-08 8.41e-11  2.71e-06    10s
  38   3.20995032e+08  3.20995032e+08  6.99e-09 7.67e-11  4.92e-07    10s
  39   3.20995032e+08  3.20995032e+08  7.91e-09 8.82e-11  1.90e-08    10s
  40   3.20995032e+08  3.20995032e+08  3.73e-09 8.05e-11  1.73e-12    10s

Barrier solved model in 40 iterations and 10.37 seconds (13.92 work units)
Optimal objective 3.20995032e+08


Root crossover log...

   10950 DPushes remaining with DInf 0.0000000e+00                10s
       0 DPushes remaining with DInf 0.0000000e+00                11s

    8039 PPushes remaining with PInf 6.2911553e-04                11s
       0 PPushes remaining with PInf 0.0000000e+00                11s

  Push phase complete: Pinf 0.0000000e+00, Dinf 1.7449222e+05     11s


Root simplex log...

Iteration    Objective       Primal Inf.    Dual Inf.      Time
   18698    3.2099503e+08   0.000000e+00   1.744915e+05     11s
   27185    3.2099503e+08   0.000000e+00   8.783360e+04     15s
   29298    3.2099503e+08   0.000000e+00   0.000000e+00     16s
Crossover time: 5.78 seconds (9.67 work units)
Concurrent spin time: 2.74s (can be avoided by choosing Method=3)

Solved with barrier

Root relaxation: objective 3.209950e+08, 29298 iterations, 14.74 seconds (16.63 work units)

    Nodes    |    Current Node    |     Objective Bounds      |     Work
 Expl Unexpl |  Obj  Depth IntInf | Incumbent    BestBd   Gap | It/Node Time

     0     0 3.2100e+08    0 6815 -3.837e+08 3.2100e+08   184%     -   24s
H    0     0                    1.359849e+08 3.2100e+08   136%     -   25s
H    0     0                    2.918526e+08 3.2100e+08  10.0%     -   26s
H    0     0                    2.952488e+08 3.2100e+08  8.72%     -   27s
H    0     0                    2.994794e+08 3.2100e+08  7.18%     -   49s
H    0     0                    3.031393e+08 3.2100e+08  5.89%     -   52s
H    0     0                    3.031398e+08 3.2100e+08  5.89%     -   55s
     0     0 3.2099e+08    0 8532 3.0314e+08 3.2099e+08  5.89%     -  797s
H    0     0                    3.032759e+08 3.2099e+08  5.84%     -  813s
H    0     0                    3.032760e+08 3.2099e+08  5.84%     -  843s
H    0     0                    3.032765e+08 3.2099e+08  5.84%     -  850s
H    0     0                    3.037051e+08 3.2099e+08  5.69%     -  850s
H    0     0                    3.037400e+08 3.2099e+08  5.68%     -  905s
H    0     0                    3.039799e+08 3.2099e+08  5.60%     -  905s
H    0     0                    3.039842e+08 3.2099e+08  5.60%     -  905s
     0     0 3.2099e+08    0 8123 3.0398e+08 3.2099e+08  5.60%     - 1122s
     0     0 3.2099e+08    0 8023 3.0398e+08 3.2099e+08  5.60%     - 2026s
H    0     0                    3.062447e+08 3.2099e+08  4.82%     - 2364s
H    0     0                    3.089765e+08 3.2099e+08  3.89%     - 2371s
H    0     0                    3.092942e+08 3.2099e+08  3.78%     - 2390s
H    0     0                    3.094062e+08 3.2099e+08  3.75%     - 2400s
H    0     0                    3.140929e+08 3.2099e+08  2.20%     - 2405s
H    0     0                    3.142979e+08 3.2099e+08  2.13%     - 2430s
H    0     0                    3.149353e+08 3.2099e+08  1.92%     - 2458s
H    0     0                    3.151821e+08 3.2099e+08  1.84%     - 2468s
H    0     0                    3.154326e+08 3.2099e+08  1.76%     - 2471s
H    0     0                    3.154421e+08 3.2099e+08  1.76%     - 2473s
H    0     0                    3.154716e+08 3.2099e+08  1.75%     - 2473s
H    0     0                    3.155124e+08 3.2099e+08  1.74%     - 2476s
H    0     0                    3.156391e+08 3.2099e+08  1.70%     - 2476s
H    0     0                    3.156971e+08 3.2099e+08  1.68%     - 2476s
H    0     0                    3.157465e+08 3.2099e+08  1.66%     - 2476s
H    0     0                    3.157679e+08 3.2099e+08  1.66%     - 2476s
H    0     0                    3.161888e+08 3.2099e+08  1.52%     - 2488s
H    0     0                    3.162590e+08 3.2099e+08  1.50%     - 2491s
H    0     0                    3.162608e+08 3.2099e+08  1.50%     - 2494s
H    0     0                    3.162618e+08 3.2099e+08  1.50%     - 2505s
H    0     0                    3.162660e+08 3.2099e+08  1.50%     - 2521s
     0     0 3.2099e+08    0 8251 3.1627e+08 3.2099e+08  1.50%     - 2694s
     0     0 3.2099e+08    0 9591 3.1627e+08 3.2099e+08  1.50%     - 3453s
H    0     0                    3.164524e+08 3.2099e+08  1.44%     - 3477s
H    0     0                    3.164532e+08 3.2099e+08  1.44%     - 3503s
H    0     0                    3.164617e+08 3.2099e+08  1.43%     - 3511s
H    0     0                    3.164814e+08 3.2099e+08  1.43%     - 3529s

Cutting planes:
  MIR: 11
  Flow cover: 35
  RLT: 3398
  Relax-and-lift: 15

Explored 1 nodes (1199248 simplex iterations) in 3600.12 seconds (6576.11 work units)
Thread count was 20 (of 20 available processors)

Solution count 10: 3.16481e+08 3.16462e+08 3.16452e+08 ... 3.15746e+08

Time limit reached
Best objective 3.164814441071e+08, best bound 3.209943334939e+08, gap 1.4260%
